Name:		mgval_0.50_7A
Optimal value:	248
#Vehicles:	3
Capacity:	200
Depot Node:	1
#Nodes:		40
#Edges:		36
#Arcs:		50
#Required N:	31
#Required E:	18
#Required A:	25

ReN.	DEMAND	S. COST
N2	12	12
N3	8	8
N4	3	3
N5	4	4
N6	8	8
N7	3	3
N8	6	6
N9	10	10
N10	16	16
N11	14	14
N12	4	4
N13	8	8
N14	7	7
N15	13	13
N16	4	4
N17	14	14
N18	13	13
N20	9	9
N21	6	6
N22	1	1
N23	7	7
N26	12	12
N27	13	13
N28	15	15
N29	9	9
N31	9	9
N33	17	17
N34	8	8
N35	6	6
N36	6	6
N38	2	2

ReE.	FROM N.	TO N.	T. COST	DEMAND	S. COST
E19	6	7	4	7	7
E20	34	35	6	8	8
E21	26	33	5	14	14
E22	9	10	2	6	6
E23	31	32	5	12	12
E24	1	40	4	10	10
E25	3	37	4	6	6
E26	21	22	1	4	4
E27	31	37	5	7	7
E28	20	23	3	8	8
E29	38	39	7	9	9
E30	29	30	3	12	12
E31	8	40	5	8	8
E32	12	17	4	8	8
E33	2	6	2	8	8
E34	27	28	3	11	11
E35	5	39	2	6	6
E36	1	2	2	3	3

EDGE	FROM N.	TO N.	T. COST
NrE1	1	33	4
NrE2	1	10	8
NrE3	18	22	6
NrE4	29	36	4
NrE5	23	24	2
NrE6	28	35	10
NrE7	20	21	2
NrE8	7	13	1
NrE9	2	36	3
NrE10	17	18	5
NrE11	15	16	3
NrE12	11	16	3
NrE13	21	24	3
NrE14	27	34	3
NrE15	3	4	2
NrE16	33	34	3
NrE17	13	18	2
NrE18	14	15	4

ReA.	FROM N.	TO N.	T. COST	DEMAND	S. COST
A26	38	31	4	5	5
A27	1	8	4	9	9
A28	25	24	2	3	3
A29	12	11	7	5	5
A30	3	2	5	5	5
A31	30	31	3	5	5
A32	24	25	2	2	2
A33	13	12	6	4	4
A34	19	13	6	12	12
A35	6	12	2	2	2
A36	38	37	2	4	4
A37	32	39	2	8	8
A38	8	14	7	10	10
A39	12	6	2	2	2
A40	17	13	2	3	3
A41	35	1	4	6	6
A42	25	22	1	2	2
A43	18	19	4	14	14
A44	36	35	6	7	7
A45	37	36	4	7	7
A46	1	11	3	12	12
A47	35	36	6	7	7
A48	2	3	5	4	4
A49	30	37	3	5	5
A50	4	38	3	2	2

ARC	FROM N.	TO N.	T. COST
NrA1	36	37	4
NrA2	3	7	2
NrA3	16	10	4
NrA4	22	25	1
NrA5	38	4	3
NrA6	9	8	5
NrA7	5	4	3
NrA8	26	34	5
NrA9	8	9	5
NrA10	11	12	7
NrA11	34	26	5
NrA12	1	35	4
NrA13	10	16	4
NrA14	9	15	2
NrA15	31	30	3
NrA16	20	17	6
NrA17	13	17	2
NrA18	12	13	6
NrA19	26	27	4
NrA20	17	20	6
NrA21	15	9	2
NrA22	4	5	3
NrA23	31	38	4
NrA24	27	26	4
NrA25	1	6	3
